modeles/4_4.lp
minimize
obj: 1 x_1_ + 1 x_2_ + 1 x_3_ + 1 x_4_
subject to
c1_1: 1 t_1,1_ - 1 y_1,1_ <= 0
c2_1: 1 t_1,2_ - 1 y_1,1_ - 1 y_1,2_ <= 0
c3_1: 1 t_1,3_ - 1 y_1,2_ - 1 y_1,3_ <= 0
c4_1: 1 t_1,4_ - 1 y_1,3_ - 1 y_1,4_ <= 0
c5_1: 1 t_1,5_ - 1 y_1,4_ <= 0
c6_1: 1 t_2,1_ - 1 y_2,1_ <= 0
c7_1: 1 t_2,2_ - 1 y_2,1_ - 1 y_2,2_ <= 0
c8_1: 1 t_2,3_ - 1 y_2,2_ - 1 y_2,3_ <= 0
c9_1: 1 t_2,4_ - 1 y_2,3_ - 1 y_2,4_ <= 0
c10_1: 1 t_2,5_ - 1 y_2,4_ <= 0
c11_1: 1 t_3,1_ - 1 y_3,1_ <= 0
c12_1: 1 t_3,2_ - 1 y_3,1_ - 1 y_3,2_ <= 0
c13: 1 t_3,3_ - 1 y_3,2_ - 1 y_3,3_ <= 0
c14: 1 t_3,4_ - 1 y_3,3_ - 1 y_3,4_ <= 0
c15: 1 t_3,5_ - 1 y_3,4_ <= 0
c16: 1 t_4,1_ - 1 y_4,1_ <= 0
c17: 1 t_4,2_ - 1 y_4,1_ - 1 y_4,2_ <= 0
c18: 1 t_4,3_ - 1 y_4,2_ - 1 y_4,3_ <= 0
c19: 1 t_4,4_ - 1 y_4,3_ - 1 y_4,4_ <= 0
c20: 1 t_4,5_ - 1 y_4,4_ <= 0
c21: 4 t_1,1_ + 4 t_2,1_ + 4 t_3,1_ + 4 t_4,1_ + 1 t_1,2_ + 1 t_2,2_ + 1 t_3,2_ + 1 t_4,2_ + 1 t_1,4_ + 1 t_2,4_ + 1 t_3,4_ + 1 t_4,4_ + 4 t_1,5_ + 4 t_2,5_ + 4 t_3,5_ + 4 t_4,5_ <= 1
c1: 1 y_1,1_ + 1 y_1,2_ + 1 y_1,3_ + 1 y_1,4_ = 1
c2: 1 t_1,1_ + 1 t_1,2_ + 1 t_1,3_ + 1 t_1,4_ + 1 t_1,5_ = 1
c3: -2 t_1,1_ - 1 t_1,2_ + 1 t_1,4_ + 2 t_1,5_ - 1 x_1_ = 0
c4: 1 y_2,1_ + 1 y_2,2_ + 1 y_2,3_ + 1 y_2,4_ = 1
c5: 1 t_2,1_ + 1 t_2,2_ + 1 t_2,3_ + 1 t_2,4_ + 1 t_2,5_ = 1
c6: -2 t_2,1_ - 1 t_2,2_ + 1 t_2,4_ + 2 t_2,5_ - 1 x_2_ = 0
c7: 1 y_3,1_ + 1 y_3,2_ + 1 y_3,3_ + 1 y_3,4_ = 1
c8: 1 t_3,1_ + 1 t_3,2_ + 1 t_3,3_ + 1 t_3,4_ + 1 t_3,5_ = 1
c9: -2 t_3,1_ - 1 t_3,2_ + 1 t_3,4_ + 2 t_3,5_ - 1 x_3_ = 0
c10: 1 y_4,1_ + 1 y_4,2_ + 1 y_4,3_ + 1 y_4,4_ = 1
c11: 1 t_4,1_ + 1 t_4,2_ + 1 t_4,3_ + 1 t_4,4_ + 1 t_4,5_ = 1
c12: -2 t_4,1_ - 1 t_4,2_ + 1 t_4,4_ + 2 t_4,5_ - 1 x_4_ = 0
Bounds
x_1_ <= 2
x_2_ <= 2
x_3_ <= 2
x_4_ <= 2
t_1,1_ >= 0
t_2,1_ >= 0
t_3,1_ >= 0
t_4,1_ >= 0
t_1,2_ >= 0
t_2,2_ >= 0
t_3,2_ >= 0
t_4,2_ >= 0
t_1,3_ >= 0
t_2,3_ >= 0
t_3,3_ >= 0
t_4,3_ >= 0
t_1,4_ >= 0
t_2,4_ >= 0
t_3,4_ >= 0
t_4,4_ >= 0
t_1,5_ >= 0
t_2,5_ >= 0
t_3,5_ >= 0
t_4,5_ >= 0
x_1_ >= -2
x_2_ >= -2
x_3_ >= -2
x_4_ >= -2
Binary
y_1,1_
y_2,1_
y_3,1_
y_4,1_
y_1,2_
y_2,2_
y_3,2_
y_4,2_
y_1,3_
y_2,3_
y_3,3_
y_4,3_
y_1,4_
y_2,4_
y_3,4_
y_4,4_
End
