res_glpk/log/4_4.log
GLPSOL--GLPK LP/MIP Solver 5.0
Parameter(s) specified in the command line:
 --lp ../modeles/4_4.lp --log 4_4.log
Reading problem data from '../modeles/4_4.lp'...
33 rows, 40 columns, 124 non-zeros
16 integer variables, all of which are binary
83 lines were read
GLPK Integer Optimizer 5.0
33 rows, 40 columns, 124 non-zeros
16 integer variables, all of which are binary
Preprocessing...
8 constraint coefficient(s) were reduced
29 rows, 36 columns, 104 non-zeros
16 integer variables, all of which are binary
Scaling...
 A: min|aij| =  2.500e-01  max|aij| =  4.000e+00  ratio =  1.600e+01
Problem data seem to be well scaled
Constructing initial basis...
Size of triangular part is 29
Solving LP relaxation...
GLPK Simplex Optimizer 5.0
29 rows, 36 columns, 104 non-zeros
      0: obj =   8.000000000e+00 inf =   2.100e+01 (9)
     22: obj =  -1.000000000e+00 inf =   0.000e+00 (0)
OPTIMAL LP SOLUTION FOUND
Integer optimization begins...
Long-step dual simplex will be used
+    22: mip =     not found yet >=              -inf        (1; 0)
+    26: >>>>>  -1.000000000e+00 >=  -1.000000000e+00   0.0% (4; 0)
+    26: mip =  -1.000000000e+00 >=     tree is empty   0.0% (0; 7)
INTEGER OPTIMAL SOLUTION FOUND
Time used:   0.0 secs
Memory used: 0.1 Mb (108740 bytes)
